p cnf 30 82
a 2 11 0
e 1 3 4 5 6 7 8 9 10 12 13 14 15 16 17 18 19 20 21 22 23 24 25 26 27 28 29 30 0
5 -3 0
5 4 0
3 -4 -5 0
2 5 -6 0
-2 -5 -6 0
2 -5 6 0
-2 5 6 0
-8 -6 0
-8 -7 0
6 7 8 0
9 1 0
9 -8 0
-1 8 -9 0
-11 10 0
-11 -10 0
12 -5 0
12 -10 0
5 10 -12 0
13 10 0
13 12 0
-10 -12 -13 0
14 11 0
14 -13 0
-11 13 -14 0
3 10 -15 0
-3 -10 -15 0
3 -10 15 0
-3 10 15 0
17 16 0
17 -2 0
-16 2 -17 0
-18 7 0
-18 17 0
-7 -17 18 0
19 18 0
19 18 0
-18 -19 0
21 5 0
21 -20 0
-5 20 -21 0
-22 -19 0
-22 21 0
19 -21 22 0
3 10 -23 0
-3 -10 -23 0
3 -10 23 0
-3 10 23 0
-23 18 -24 0
23 -18 -24 0
-23 -18 24 0
23 18 24 0
22 24 -25 0
-22 -24 -25 0
22 -24 25 0
-22 24 25 0
15 -25 -26 0
-15 25 -26 0
15 25 26 0
-15 -25 26 0
-6 -18 -27 0
6 18 -27 0
-6 18 27 0
6 -18 27 0
26 27 -28 0
-26 -27 -28 0
26 -27 28 0
-26 27 28 0
-14 -28 -29 0
14 28 -29 0
-14 28 29 0
14 -28 29 0
-30 -9 0
-30 29 0
9 -29 30 0
-23 -7 14 13 18 0
24 6 -26 -27 -28 8 -25 0
-10 7 -27 0
1 -26 -4 -27 30 0
-3 25 -23 -17 -26 0
23 -26 29 11 -15 16 0
15 -28 -5 -27 -18 30 0
30 0
